p wcnf 473 1452
w -2 0.367879 0
w 2 2.718282 0
w -3 0.367879 0
w 3 2.718282 0
w -4 0.367879 0
w 4 2.718282 0
w -5 0.367879 0
w 5 2.718282 0
w -6 0.367879 0
w 6 2.718282 0
w -7 0.367879 0
w 7 2.718282 0
w -8 0.367879 0
w 8 2.718282 0
w -10 0.367879 0
w 10 2.718282 0
w -11 0.367879 0
w 11 2.718282 0
w -12 0.367879 0
w 12 2.718282 0
w -13 0.367879 0
w 13 2.718282 0
w -14 0.367879 0
w 14 2.718282 0
w -16 0.367879 0
w 16 2.718282 0
w -17 0.367879 0
w 17 2.718282 0
w -18 0.367879 0
w 18 2.718282 0
w -19 0.367879 0
w 19 2.718282 0
w -20 0.367879 0
w 20 2.718282 0
w -21 0.367879 0
w 21 2.718282 0
w -22 0.367879 0
w 22 2.718282 0
w -23 0.367879 0
w 23 2.718282 0
w -25 0.367879 0
w 25 2.718282 0
w -26 0.367879 0
w 26 2.718282 0
w -27 0.367879 0
w 27 2.718282 0
w -28 0.367879 0
w 28 2.718282 0
w -29 0.367879 0
w 29 2.718282 0
w -30 0.367879 0
w 30 2.718282 0
w -31 0.367879 0
w 31 2.718282 0
w -32 0.367879 0
w 32 2.718282 0
w -33 0.367879 0
w 33 2.718282 0
w -34 0.367879 0
w 34 2.718282 0
w -35 0.367879 0
w 35 2.718282 0
w -36 0.367879 0
w 36 2.718282 0
w -37 0.367879 0
w 37 2.718282 0
w -39 0.367879 0
w 39 2.718282 0
w -40 0.367879 0
w 40 2.718282 0
w -41 0.367879 0
w 41 2.718282 0
w -42 0.367879 0
w 42 2.718282 0
w -43 0.367879 0
w 43 2.718282 0
w -44 0.367879 0
w 44 2.718282 0
w -45 0.367879 0
w 45 2.718282 0
w -46 0.367879 0
w 46 2.718282 0
w -47 0.367879 0
w 47 2.718282 0
w -49 0.367879 0
w 49 2.718282 0
w -50 0.367879 0
w 50 2.718282 0
w -51 0.367879 0
w 51 2.718282 0
w -52 0.367879 0
w 52 2.718282 0
w -53 0.367879 0
w 53 2.718282 0
w -54 0.367879 0
w 54 2.718282 0
w -55 0.367879 0
w 55 2.718282 0
w -57 0.367879 0
w 57 2.718282 0
w -58 0.367879 0
w 58 2.718282 0
w -59 0.367879 0
w 59 2.718282 0
w -60 0.367879 0
w 60 2.718282 0
w -61 0.367879 0
w 61 2.718282 0
w -62 0.367879 0
w 62 2.718282 0
w -63 0.367879 0
w 63 2.718282 0
w -65 0.367879 0
w 65 2.718282 0
w -66 0.367879 0
w 66 2.718282 0
w -67 0.367879 0
w 67 2.718282 0
w -68 0.367879 0
w 68 2.718282 0
w -69 0.367879 0
w 69 2.718282 0
w -70 0.367879 0
w 70 2.718282 0
w -72 0.367879 0
w 72 2.718282 0
w -73 0.367879 0
w 73 2.718282 0
w -74 0.367879 0
w 74 2.718282 0
w -75 0.367879 0
w 75 2.718282 0
w -76 0.367879 0
w 76 2.718282 0
w -77 0.367879 0
w 77 2.718282 0
w -78 0.367879 0
w 78 2.718282 0
w -79 0.367879 0
w 79 2.718282 0
w -80 0.367879 0
w 80 2.718282 0
w -82 0.367879 0
w 82 2.718282 0
w -83 0.367879 0
w 83 2.718282 0
w -84 0.367879 0
w 84 2.718282 0
w -85 0.367879 0
w 85 2.718282 0
w -86 0.367879 0
w 86 2.718282 0
w -88 0.367879 0
w 88 2.718282 0
w -89 0.367879 0
w 89 2.718282 0
w -90 0.367879 0
w 90 2.718282 0
w -91 0.367879 0
w 91 2.718282 0
w -92 0.367879 0
w 92 2.718282 0
w -93 0.367879 0
w 93 2.718282 0
w -95 0.367879 0
w 95 2.718282 0
w -96 0.367879 0
w 96 2.718282 0
w -97 0.367879 0
w 97 2.718282 0
w -98 0.367879 0
w 98 2.718282 0
w -99 0.367879 0
w 99 2.718282 0
w -100 0.367879 0
w 100 2.718282 0
w -101 0.367879 0
w 101 2.718282 0
w -103 0.367879 0
w 103 2.718282 0
w -104 0.367879 0
w 104 2.718282 0
w -105 0.367879 0
w 105 2.718282 0
w -106 0.367879 0
w 106 2.718282 0
w -107 0.367879 0
w 107 2.718282 0
w -108 0.367879 0
w 108 2.718282 0
w -109 0.367879 0
w 109 2.718282 0
w -110 0.367879 0
w 110 2.718282 0
w -111 0.367879 0
w 111 2.718282 0
w -113 0.367879 0
w 113 2.718282 0
w -114 0.367879 0
w 114 2.718282 0
w -115 0.367879 0
w 115 2.718282 0
w -116 0.367879 0
w 116 2.718282 0
w -118 0.367879 0
w 118 2.718282 0
w -119 0.367879 0
w 119 2.718282 0
w -120 0.367879 0
w 120 2.718282 0
w -121 0.367879 0
w 121 2.718282 0
w -122 0.367879 0
w 122 2.718282 0
w -123 0.367879 0
w 123 2.718282 0
w -125 0.367879 0
w 125 2.718282 0
w -126 0.367879 0
w 126 2.718282 0
w -127 0.367879 0
w 127 2.718282 0
w -129 0.367879 0
w 129 2.718282 0
w -130 0.367879 0
w 130 2.718282 0
w -131 0.367879 0
w 131 2.718282 0
w -132 0.367879 0
w 132 2.718282 0
w -133 0.367879 0
w 133 2.718282 0
w -134 0.367879 0
w 134 2.718282 0
w -136 0.367879 0
w 136 2.718282 0
w -137 0.367879 0
w 137 2.718282 0
w -138 0.367879 0
w 138 2.718282 0
w -139 0.367879 0
w 139 2.718282 0
w -140 0.367879 0
w 140 2.718282 0
w -141 0.367879 0
w 141 2.718282 0
w -142 0.367879 0
w 142 2.718282 0
w -144 0.367879 0
w 144 2.718282 0
w -145 0.367879 0
w 145 2.718282 0
w -146 0.367879 0
w 146 2.718282 0
w -148 0.367879 0
w 148 2.718282 0
w -149 0.367879 0
w 149 2.718282 0
w -150 0.367879 0
w 150 2.718282 0
w -151 0.367879 0
w 151 2.718282 0
w -152 0.367879 0
w 152 2.718282 0
w -154 0.367879 0
w 154 2.718282 0
w -155 0.367879 0
w 155 2.718282 0
w -156 0.367879 0
w 156 2.718282 0
w -157 0.367879 0
w 157 2.718282 0
w -158 0.367879 0
w 158 2.718282 0
w -159 0.367879 0
w 159 2.718282 0
w -160 0.367879 0
w 160 2.718282 0
w -161 0.367879 0
w 161 2.718282 0
w -162 0.367879 0
w 162 2.718282 0
w -163 0.367879 0
w 163 2.718282 0
w -164 0.367879 0
w 164 2.718282 0
w -166 0.367879 0
w 166 2.718282 0
w -167 0.367879 0
w 167 2.718282 0
w -168 0.367879 0
w 168 2.718282 0
w -169 0.367879 0
w 169 2.718282 0
w -170 0.367879 0
w 170 2.718282 0
w -172 0.367879 0
w 172 2.718282 0
w -173 0.367879 0
w 173 2.718282 0
w -174 0.367879 0
w 174 2.718282 0
w -175 0.367879 0
w 175 2.718282 0
w -176 0.367879 0
w 176 2.718282 0
w -178 0.367879 0
w 178 2.718282 0
w -179 0.367879 0
w 179 2.718282 0
w -181 0.367879 0
w 181 2.718282 0
w -182 0.367879 0
w 182 2.718282 0
w -183 0.367879 0
w 183 2.718282 0
w -184 0.367879 0
w 184 2.718282 0
w -185 0.367879 0
w 185 2.718282 0
w -186 0.367879 0
w 186 2.718282 0
w -187 0.367879 0
w 187 2.718282 0
w -189 0.367879 0
w 189 2.718282 0
w -190 0.367879 0
w 190 2.718282 0
w -191 0.367879 0
w 191 2.718282 0
w -192 0.367879 0
w 192 2.718282 0
w -193 0.367879 0
w 193 2.718282 0
w -194 0.367879 0
w 194 2.718282 0
w -196 0.367879 0
w 196 2.718282 0
w -197 0.367879 0
w 197 2.718282 0
w -198 0.367879 0
w 198 2.718282 0
w -199 0.367879 0
w 199 2.718282 0
w -200 0.367879 0
w 200 2.718282 0
w -201 0.367879 0
w 201 2.718282 0
w -202 0.367879 0
w 202 2.718282 0
w -203 0.367879 0
w 203 2.718282 0
w -204 0.367879 0
w 204 2.718282 0
w -206 0.367879 0
w 206 2.718282 0
w -207 0.367879 0
w 207 2.718282 0
w -208 0.367879 0
w 208 2.718282 0
w -210 0.367879 0
w 210 2.718282 0
w -211 0.367879 0
w 211 2.718282 0
w -212 0.367879 0
w 212 2.718282 0
w -214 0.367879 0
w 214 2.718282 0
w -215 0.367879 0
w 215 2.718282 0
w -217 0.367879 0
w 217 2.718282 0
w -218 0.367879 0
w 218 2.718282 0
w -219 0.367879 0
w 219 2.718282 0
w -221 0.367879 0
w 221 2.718282 0
w -222 0.367879 0
w 222 2.718282 0
w -223 0.367879 0
w 223 2.718282 0
w -224 0.367879 0
w 224 2.718282 0
w -225 0.367879 0
w 225 2.718282 0
w -226 0.367879 0
w 226 2.718282 0
w -228 0.367879 0
w 228 2.718282 0
w -229 0.367879 0
w 229 2.718282 0
w -230 0.367879 0
w 230 2.718282 0
w -231 0.367879 0
w 231 2.718282 0
w -232 0.367879 0
w 232 2.718282 0
w -233 0.367879 0
w 233 2.718282 0
w -235 0.367879 0
w 235 2.718282 0
w -236 0.367879 0
w 236 2.718282 0
w -237 0.367879 0
w 237 2.718282 0
w -238 0.367879 0
w 238 2.718282 0
w -240 0.367879 0
w 240 2.718282 0
w -241 0.367879 0
w 241 2.718282 0
w -242 0.367879 0
w 242 2.718282 0
w -243 0.367879 0
w 243 2.718282 0
w -245 0.367879 0
w 245 2.718282 0
w -246 0.367879 0
w 246 2.718282 0
w -248 0.367879 0
w 248 2.718282 0
w -250 0.367879 0
w 250 2.718282 0
w -251 0.367879 0
w 251 2.718282 0
w -252 0.367879 0
w 252 2.718282 0
w -253 0.367879 0
w 253 2.718282 0
w -254 0.367879 0
w 254 2.718282 0
w -255 0.367879 0
w 255 2.718282 0
w -256 0.367879 0
w 256 2.718282 0
w -258 0.367879 0
w 258 2.718282 0
w -259 0.367879 0
w 259 2.718282 0
w -260 0.367879 0
w 260 2.718282 0
w -261 0.367879 0
w 261 2.718282 0
w -262 0.367879 0
w 262 2.718282 0
w -263 0.367879 0
w 263 2.718282 0
w -264 0.367879 0
w 264 2.718282 0
w -265 0.367879 0
w 265 2.718282 0
w -266 0.367879 0
w 266 2.718282 0
w -267 0.367879 0
w 267 2.718282 0
w -269 0.367879 0
w 269 2.718282 0
w -270 0.367879 0
w 270 2.718282 0
w -271 0.367879 0
w 271 2.718282 0
w -272 0.367879 0
w 272 2.718282 0
w -273 0.367879 0
w 273 2.718282 0
w -275 0.367879 0
w 275 2.718282 0
w -276 0.367879 0
w 276 2.718282 0
w -277 0.367879 0
w 277 2.718282 0
w -279 0.367879 0
w 279 2.718282 0
w -281 0.367879 0
w 281 2.718282 0
w -282 0.367879 0
w 282 2.718282 0
w -283 0.367879 0
w 283 2.718282 0
w -284 0.367879 0
w 284 2.718282 0
w -285 0.367879 0
w 285 2.718282 0
w -286 0.367879 0
w 286 2.718282 0
w -287 0.367879 0
w 287 2.718282 0
w -289 0.367879 0
w 289 2.718282 0
w -290 0.367879 0
w 290 2.718282 0
w -291 0.367879 0
w 291 2.718282 0
w -292 0.367879 0
w 292 2.718282 0
w -293 0.367879 0
w 293 2.718282 0
w -295 0.367879 0
w 295 2.718282 0
w -296 0.367879 0
w 296 2.718282 0
w -297 0.367879 0
w 297 2.718282 0
w -298 0.367879 0
w 298 2.718282 0
w -300 0.367879 0
w 300 2.718282 0
w -301 0.367879 0
w 301 2.718282 0
w -302 0.367879 0
w 302 2.718282 0
w -304 0.367879 0
w 304 2.718282 0
w -305 0.367879 0
w 305 2.718282 0
w -307 0.367879 0
w 307 2.718282 0
w -308 0.367879 0
w 308 2.718282 0
w -309 0.367879 0
w 309 2.718282 0
w -310 0.367879 0
w 310 2.718282 0
w -311 0.367879 0
w 311 2.718282 0
w -313 0.367879 0
w 313 2.718282 0
w -314 0.367879 0
w 314 2.718282 0
w -315 0.367879 0
w 315 2.718282 0
w -317 0.367879 0
w 317 2.718282 0
w -318 0.367879 0
w 318 2.718282 0
w -319 0.367879 0
w 319 2.718282 0
w -320 0.367879 0
w 320 2.718282 0
w -323 0.367879 0
w 323 2.718282 0
w -324 0.367879 0
w 324 2.718282 0
w -325 0.367879 0
w 325 2.718282 0
w -327 0.367879 0
w 327 2.718282 0
w -328 0.367879 0
w 328 2.718282 0
w -329 0.367879 0
w 329 2.718282 0
w -330 0.367879 0
w 330 2.718282 0
w -331 0.367879 0
w 331 2.718282 0
w -332 0.367879 0
w 332 2.718282 0
w -333 0.367879 0
w 333 2.718282 0
w -335 0.367879 0
w 335 2.718282 0
w -336 0.367879 0
w 336 2.718282 0
w -337 0.367879 0
w 337 2.718282 0
w -338 0.367879 0
w 338 2.718282 0
w -340 0.367879 0
w 340 2.718282 0
w -341 0.367879 0
w 341 2.718282 0
w -343 0.367879 0
w 343 2.718282 0
w -344 0.367879 0
w 344 2.718282 0
w -345 0.367879 0
w 345 2.718282 0
w -346 0.367879 0
w 346 2.718282 0
w -348 0.367879 0
w 348 2.718282 0
w -349 0.367879 0
w 349 2.718282 0
w -351 0.367879 0
w 351 2.718282 0
w -352 0.367879 0
w 352 2.718282 0
w -353 0.367879 0
w 353 2.718282 0
w -356 0.367879 0
w 356 2.718282 0
w -357 0.367879 0
w 357 2.718282 0
w -359 0.367879 0
w 359 2.718282 0
w -360 0.367879 0
w 360 2.718282 0
w -362 0.367879 0
w 362 2.718282 0
w -364 0.367879 0
w 364 2.718282 0
w -365 0.367879 0
w 365 2.718282 0
w -367 0.367879 0
w 367 2.718282 0
w -368 0.367879 0
w 368 2.718282 0
w -370 0.367879 0
w 370 2.718282 0
w -371 0.367879 0
w 371 2.718282 0
w -372 0.367879 0
w 372 2.718282 0
w -374 0.367879 0
w 374 2.718282 0
w -375 0.367879 0
w 375 2.718282 0
w -376 0.367879 0
w 376 2.718282 0
w -378 0.367879 0
w 378 2.718282 0
w -379 0.367879 0
w 379 2.718282 0
w -382 0.367879 0
w 382 2.718282 0
w -383 0.367879 0
w 383 2.718282 0
w -385 0.367879 0
w 385 2.718282 0
w -387 0.367879 0
w 387 2.718282 0
w -389 0.367879 0
w 389 2.718282 0
w -390 0.367879 0
w 390 2.718282 0
w -392 0.367879 0
w 392 2.718282 0
w -393 0.367879 0
w 393 2.718282 0
w -394 0.367879 0
w 394 2.718282 0
w -395 0.367879 0
w 395 2.718282 0
w -396 0.367879 0
w 396 2.718282 0
w -398 0.367879 0
w 398 2.718282 0
w -400 0.367879 0
w 400 2.718282 0
w -402 0.367879 0
w 402 2.718282 0
w -403 0.367879 0
w 403 2.718282 0
w -404 0.367879 0
w 404 2.718282 0
w -406 0.367879 0
w 406 2.718282 0
w -407 0.367879 0
w 407 2.718282 0
w -409 0.367879 0
w 409 2.718282 0
w -410 0.367879 0
w 410 2.718282 0
w -413 0.367879 0
w 413 2.718282 0
w -414 0.367879 0
w 414 2.718282 0
w -416 0.367879 0
w 416 2.718282 0
w -417 0.367879 0
w 417 2.718282 0
w -418 0.367879 0
w 418 2.718282 0
w -419 0.367879 0
w 419 2.718282 0
w -424 0.367879 0
w 424 2.718282 0
w -425 0.367879 0
w 425 2.718282 0
w -427 0.367879 0
w 427 2.718282 0
w -429 0.367879 0
w 429 2.718282 0
w -430 0.367879 0
w 430 2.718282 0
w -432 0.367879 0
w 432 2.718282 0
w -434 0.367879 0
w 434 2.718282 0
w -435 0.367879 0
w 435 2.718282 0
w -437 0.367879 0
w 437 2.718282 0
w -439 0.367879 0
w 439 2.718282 0
w -441 0.367879 0
w 441 2.718282 0
w -444 0.367879 0
w 444 2.718282 0
w -445 0.367879 0
w 445 2.718282 0
w -447 0.367879 0
w 447 2.718282 0
w -448 0.367879 0
w 448 2.718282 0
w -450 0.367879 0
w 450 2.718282 0
w -451 0.367879 0
w 451 2.718282 0
w -452 0.367879 0
w 452 2.718282 0
w -454 0.367879 0
w 454 2.718282 0
w -456 0.367879 0
w 456 2.718282 0
w -457 0.367879 0
w 457 2.718282 0
w -459 0.367879 0
w 459 2.718282 0
w -461 0.367879 0
w 461 2.718282 0
w -463 0.367879 0
w 463 2.718282 0
w -465 0.367879 0
w 465 2.718282 0
2 1 87 0
2 -1 -87 0
-2 1 -87 0
-2 -1 87 0
3 1 147 0
3 -1 -147 0
-3 1 -147 0
-3 -1 147 0
4 1 153 0
4 -1 -153 0
-4 1 -153 0
-4 -1 153 0
5 1 227 0
5 -1 -227 0
-5 1 -227 0
-5 -1 227 0
6 1 366 0
6 -1 -366 0
-6 1 -366 0
-6 -1 366 0
7 1 426 0
7 -1 -426 0
-7 1 -426 0
-7 -1 426 0
8 1 442 0
8 -1 -442 0
-8 1 -442 0
-8 -1 442 0
10 9 288 0
10 -9 -288 0
-10 9 -288 0
-10 -9 288 0
11 9 299 0
11 -9 -299 0
-11 9 -299 0
-11 -9 299 0
12 9 326 0
12 -9 -326 0
-12 9 -326 0
-12 -9 326 0
13 9 342 0
13 -9 -342 0
-13 9 -342 0
-13 -9 342 0
14 9 354 0
14 -9 -354 0
-14 9 -354 0
-14 -9 354 0
16 15 87 0
16 -15 -87 0
-16 15 -87 0
-16 -15 87 0
17 15 177 0
17 -15 -177 0
-17 15 -177 0
-17 -15 177 0
18 15 180 0
18 -15 -180 0
-18 15 -180 0
-18 -15 180 0
19 15 209 0
19 -15 -209 0
-19 15 -209 0
-19 -15 209 0
20 15 303 0
20 -15 -303 0
-20 15 -303 0
-20 -15 303 0
21 15 354 0
21 -15 -354 0
-21 15 -354 0
-21 -15 354 0
22 15 428 0
22 -15 -428 0
-22 15 -428 0
-22 -15 428 0
23 15 460 0
23 -15 -460 0
-23 15 -460 0
-23 -15 460 0
25 24 71 0
25 -24 -71 0
-25 24 -71 0
-25 -24 71 0
26 24 227 0
26 -24 -227 0
-26 24 -227 0
-26 -24 227 0
27 24 234 0
27 -24 -234 0
-27 24 -234 0
-27 -24 234 0
28 24 294 0
28 -24 -294 0
-28 24 -294 0
-28 -24 294 0
29 24 366 0
29 -24 -366 0
-29 24 -366 0
-29 -24 366 0
30 24 405 0
30 -24 -405 0
-30 24 -405 0
-30 -24 405 0
31 24 412 0
31 -24 -412 0
-31 24 -412 0
-31 -24 412 0
32 24 421 0
32 -24 -421 0
-32 24 -421 0
-32 -24 421 0
33 24 423 0
33 -24 -423 0
-33 24 -423 0
-33 -24 423 0
34 24 431 0
34 -24 -431 0
-34 24 -431 0
-34 -24 431 0
35 24 443 0
35 -24 -443 0
-35 24 -443 0
-35 -24 443 0
36 24 467 0
36 -24 -467 0
-36 24 -467 0
-36 -24 467 0
37 24 469 0
37 -24 -469 0
-37 24 -469 0
-37 -24 469 0
39 38 153 0
39 -38 -153 0
-39 38 -153 0
-39 -38 153 0
40 38 171 0
40 -38 -171 0
-40 38 -171 0
-40 -38 171 0
41 38 227 0
41 -38 -227 0
-41 38 -227 0
-41 -38 227 0
42 38 355 0
42 -38 -355 0
-42 38 -355 0
-42 -38 355 0
43 38 369 0
43 -38 -369 0
-43 38 -369 0
-43 -38 369 0
44 38 431 0
44 -38 -431 0
-44 38 -431 0
-44 -38 431 0
45 38 433 0
45 -38 -433 0
-45 38 -433 0
-45 -38 433 0
46 38 453 0
46 -38 -453 0
-46 38 -453 0
-46 -38 453 0
47 38 471 0
47 -38 -471 0
-47 38 -471 0
-47 -38 471 0
49 48 205 0
49 -48 -205 0
-49 48 -205 0
-49 -48 205 0
50 48 274 0
50 -48 -274 0
-50 48 -274 0
-50 -48 274 0
51 48 306 0
51 -48 -306 0
-51 48 -306 0
-51 -48 306 0
52 48 312 0
52 -48 -312 0
-52 48 -312 0
-52 -48 312 0
53 48 354 0
53 -48 -354 0
-53 48 -354 0
-53 -48 354 0
54 48 422 0
54 -48 -422 0
-54 48 -422 0
-54 -48 422 0
55 48 455 0
55 -48 -455 0
-55 48 -455 0
-55 -48 455 0
57 56 128 0
57 -56 -128 0
-57 56 -128 0
-57 -56 128 0
58 56 280 0
58 -56 -280 0
-58 56 -280 0
-58 -56 280 0
59 56 321 0
59 -56 -321 0
-59 56 -321 0
-59 -56 321 0
60 56 361 0
60 -56 -361 0
-60 56 -361 0
-60 -56 361 0
61 56 369 0
61 -56 -369 0
-61 56 -369 0
-61 -56 369 0
62 56 405 0
62 -56 -405 0
-62 56 -405 0
-62 -56 405 0
63 56 464 0
63 -56 -464 0
-63 56 -464 0
-63 -56 464 0
65 64 177 0
65 -64 -177 0
-65 64 -177 0
-65 -64 177 0
66 64 213 0
66 -64 -213 0
-66 64 -213 0
-66 -64 213 0
67 64 405 0
67 -64 -405 0
-67 64 -405 0
-67 -64 405 0
68 64 431 0
68 -64 -431 0
-68 64 -431 0
-68 -64 431 0
69 64 433 0
69 -64 -433 0
-69 64 -433 0
-69 -64 433 0
70 64 472 0
70 -64 -472 0
-70 64 -472 0
-70 -64 472 0
72 71 94 0
72 -71 -94 0
-72 71 -94 0
-72 -71 94 0
73 71 177 0
73 -71 -177 0
-73 71 -177 0
-73 -71 177 0
74 71 195 0
74 -71 -195 0
-74 71 -195 0
-74 -71 195 0
75 71 247 0
75 -71 -247 0
-75 71 -247 0
-75 -71 247 0
76 71 303 0
76 -71 -303 0
-76 71 -303 0
-76 -71 303 0
77 71 321 0
77 -71 -321 0
-77 71 -321 0
-77 -71 321 0
78 71 339 0
78 -71 -339 0
-78 71 -339 0
-78 -71 339 0
79 71 388 0
79 -71 -388 0
-79 71 -388 0
-79 -71 388 0
80 71 470 0
80 -71 -470 0
-80 71 -470 0
-80 -71 470 0
82 81 220 0
82 -81 -220 0
-82 81 -220 0
-82 -81 220 0
83 81 384 0
83 -81 -384 0
-83 81 -384 0
-83 -81 384 0
84 81 405 0
84 -81 -405 0
-84 81 -405 0
-84 -81 405 0
85 81 411 0
85 -81 -411 0
-85 81 -411 0
-85 -81 411 0
86 81 473 0
86 -81 -473 0
-86 81 -473 0
-86 -81 473 0
88 87 177 0
88 -87 -177 0
-88 87 -177 0
-88 -87 177 0
89 87 268 0
89 -87 -268 0
-89 87 -268 0
-89 -87 268 0
90 87 366 0
90 -87 -366 0
-90 87 -366 0
-90 -87 366 0
91 87 408 0
91 -87 -408 0
-91 87 -408 0
-91 -87 408 0
92 87 420 0
92 -87 -420 0
-92 87 -420 0
-92 -87 420 0
93 87 422 0
93 -87 -422 0
-93 87 -422 0
-93 -87 422 0
95 94 278 0
95 -94 -278 0
-95 94 -278 0
-95 -94 278 0
96 94 339 0
96 -94 -339 0
-96 94 -339 0
-96 -94 339 0
97 94 355 0
97 -94 -355 0
-97 94 -355 0
-97 -94 355 0
98 94 405 0
98 -94 -405 0
-98 94 -405 0
-98 -94 405 0
99 94 420 0
99 -94 -420 0
-99 94 -420 0
-99 -94 420 0
100 94 421 0
100 -94 -421 0
-100 94 -421 0
-100 -94 421 0
101 94 436 0
101 -94 -436 0
-101 94 -436 0
-101 -94 436 0
103 102 177 0
103 -102 -177 0
-103 102 -177 0
-103 -102 177 0
104 102 303 0
104 -102 -303 0
-104 102 -303 0
-104 -102 303 0
105 102 306 0
105 -102 -306 0
-105 102 -306 0
-105 -102 306 0
106 102 339 0
106 -102 -339 0
-106 102 -339 0
-106 -102 339 0
107 102 361 0
107 -102 -361 0
-107 102 -361 0
-107 -102 361 0
108 102 386 0
108 -102 -386 0
-108 102 -386 0
-108 -102 386 0
109 102 438 0
109 -102 -438 0
-109 102 -438 0
-109 -102 438 0
110 102 449 0
110 -102 -449 0
-110 102 -449 0
-110 -102 449 0
111 102 468 0
111 -102 -468 0
-111 102 -468 0
-111 -102 468 0
113 112 205 0
113 -112 -205 0
-113 112 -205 0
-113 -112 205 0
114 112 247 0
114 -112 -247 0
-114 112 -247 0
-114 -112 247 0
115 112 388 0
115 -112 -388 0
-115 112 -388 0
-115 -112 388 0
116 112 443 0
116 -112 -443 0
-116 112 -443 0
-116 -112 443 0
118 117 143 0
118 -117 -143 0
-118 117 -143 0
-118 -117 143 0
119 117 153 0
119 -117 -153 0
-119 117 -153 0
-119 -117 153 0
120 117 227 0
120 -117 -227 0
-120 117 -227 0
-120 -117 227 0
121 117 268 0
121 -117 -268 0
-121 117 -268 0
-121 -117 268 0
122 117 326 0
122 -117 -326 0
-122 117 -326 0
-122 -117 326 0
123 117 388 0
123 -117 -388 0
-123 117 -388 0
-123 -117 388 0
125 124 227 0
125 -124 -227 0
-125 124 -227 0
-125 -124 227 0
126 124 312 0
126 -124 -312 0
-126 124 -312 0
-126 -124 312 0
127 124 411 0
127 -124 -411 0
-127 124 -411 0
-127 -124 411 0
129 128 135 0
129 -128 -135 0
-129 128 -135 0
-129 -128 135 0
130 128 306 0
130 -128 -306 0
-130 128 -306 0
-130 -128 306 0
131 128 358 0
131 -128 -358 0
-131 128 -358 0
-131 -128 358 0
132 128 369 0
132 -128 -369 0
-132 128 -369 0
-132 -128 369 0
133 128 401 0
133 -128 -401 0
-133 128 -401 0
-133 -128 401 0
134 128 462 0
134 -128 -462 0
-134 128 -462 0
-134 -128 462 0
136 135 268 0
136 -135 -268 0
-136 135 -268 0
-136 -135 268 0
137 135 280 0
137 -135 -280 0
-137 135 -280 0
-137 -135 280 0
138 135 306 0
138 -135 -306 0
-138 135 -306 0
-138 -135 306 0
139 135 326 0
139 -135 -326 0
-139 135 -326 0
-139 -135 326 0
140 135 354 0
140 -135 -354 0
-140 135 -354 0
-140 -135 354 0
141 135 386 0
141 -135 -386 0
-141 135 -386 0
-141 -135 386 0
142 135 422 0
142 -135 -422 0
-142 135 -422 0
-142 -135 422 0
144 143 247 0
144 -143 -247 0
-144 143 -247 0
-144 -143 247 0
145 143 415 0
145 -143 -415 0
-145 143 -415 0
-145 -143 415 0
146 143 464 0
146 -143 -464 0
-146 143 -464 0
-146 -143 464 0
148 147 220 0
148 -147 -220 0
-148 147 -220 0
-148 -147 220 0
149 147 306 0
149 -147 -306 0
-149 147 -306 0
-149 -147 306 0
150 147 373 0
150 -147 -373 0
-150 147 -373 0
-150 -147 373 0
151 147 431 0
151 -147 -431 0
-151 147 -431 0
-151 -147 431 0
152 147 466 0
152 -147 -466 0
-152 147 -466 0
-152 -147 466 0
154 153 213 0
154 -153 -213 0
-154 153 -213 0
-154 -153 213 0
155 153 288 0
155 -153 -288 0
-155 153 -288 0
-155 -153 288 0
156 153 303 0
156 -153 -303 0
-156 153 -303 0
-156 -153 303 0
157 153 321 0
157 -153 -321 0
-157 153 -321 0
-157 -153 321 0
158 153 408 0
158 -153 -408 0
-158 153 -408 0
-158 -153 408 0
159 153 422 0
159 -153 -422 0
-159 153 -422 0
-159 -153 422 0
160 153 436 0
160 -153 -436 0
-160 153 -436 0
-160 -153 436 0
161 153 438 0
161 -153 -438 0
-161 153 -438 0
-161 -153 438 0
162 153 469 0
162 -153 -469 0
-162 153 -469 0
-162 -153 469 0
163 153 470 0
163 -153 -470 0
-163 153 -470 0
-163 -153 470 0
164 153 473 0
164 -153 -473 0
-164 153 -473 0
-164 -153 473 0
166 165 195 0
166 -165 -195 0
-166 165 -195 0
-166 -165 195 0
167 165 249 0
167 -165 -249 0
-167 165 -249 0
-167 -165 249 0
168 165 401 0
168 -165 -401 0
-168 165 -401 0
-168 -165 401 0
169 165 469 0
169 -165 -469 0
-169 165 -469 0
-169 -165 469 0
170 165 471 0
170 -165 -471 0
-170 165 -471 0
-170 -165 471 0
172 171 227 0
172 -171 -227 0
-172 171 -227 0
-172 -171 227 0
173 171 244 0
173 -171 -244 0
-173 171 -244 0
-173 -171 244 0
174 171 342 0
174 -171 -342 0
-174 171 -342 0
-174 -171 342 0
175 171 358 0
175 -171 -358 0
-175 171 -358 0
-175 -171 358 0
176 171 428 0
176 -171 -428 0
-176 171 -428 0
-176 -171 428 0
178 177 299 0
178 -177 -299 0
-178 177 -299 0
-178 -177 299 0
179 177 388 0
179 -177 -388 0
-179 177 -388 0
-179 -177 388 0
181 180 234 0
181 -180 -234 0
-181 180 -234 0
-181 -180 234 0
182 180 268 0
182 -180 -268 0
-182 180 -268 0
-182 -180 268 0
183 180 312 0
183 -180 -312 0
-183 180 -312 0
-183 -180 312 0
184 180 426 0
184 -180 -426 0
-184 180 -426 0
-184 -180 426 0
185 180 458 0
185 -180 -458 0
-185 180 -458 0
-185 -180 458 0
186 180 471 0
186 -180 -471 0
-186 180 -471 0
-186 -180 471 0
187 180 472 0
187 -180 -472 0
-187 180 -472 0
-187 -180 472 0
189 188 388 0
189 -188 -388 0
-189 188 -388 0
-189 -188 388 0
190 188 399 0
190 -188 -399 0
-190 188 -399 0
-190 -188 399 0
191 188 405 0
191 -188 -405 0
-191 188 -405 0
-191 -188 405 0
192 188 446 0
192 -188 -446 0
-192 188 -446 0
-192 -188 446 0
193 188 468 0
193 -188 -468 0
-193 188 -468 0
-193 -188 468 0
194 188 473 0
194 -188 -473 0
-194 188 -473 0
-194 -188 473 0
196 195 227 0
196 -195 -227 0
-196 195 -227 0
-196 -195 227 0
197 195 247 0
197 -195 -247 0
-197 195 -247 0
-197 -195 247 0
198 195 274 0
198 -195 -274 0
-198 195 -274 0
-198 -195 274 0
199 195 339 0
199 -195 -339 0
-199 195 -339 0
-199 -195 339 0
200 195 381 0
200 -195 -381 0
-200 195 -381 0
-200 -195 381 0
201 195 453 0
201 -195 -453 0
-201 195 -453 0
-201 -195 453 0
202 195 468 0
202 -195 -468 0
-202 195 -468 0
-202 -195 468 0
203 195 470 0
203 -195 -470 0
-203 195 -470 0
-203 -195 470 0
204 195 471 0
204 -195 -471 0
-204 195 -471 0
-204 -195 471 0
206 205 455 0
206 -205 -455 0
-206 205 -455 0
-206 -205 455 0
207 205 464 0
207 -205 -464 0
-207 205 -464 0
-207 -205 464 0
208 205 469 0
208 -205 -469 0
-208 205 -469 0
-208 -205 469 0
210 209 220 0
210 -209 -220 0
-210 209 -220 0
-210 -209 220 0
211 209 347 0
211 -209 -347 0
-211 209 -347 0
-211 -209 347 0
212 209 423 0
212 -209 -423 0
-212 209 -423 0
-212 -209 423 0
214 213 274 0
214 -213 -274 0
-214 213 -274 0
-214 -213 274 0
215 213 278 0
215 -213 -278 0
-215 213 -278 0
-215 -213 278 0
217 216 399 0
217 -216 -399 0
-217 216 -399 0
-217 -216 399 0
218 216 467 0
218 -216 -467 0
-218 216 -467 0
-218 -216 467 0
219 216 472 0
219 -216 -472 0
-219 216 -472 0
-219 -216 472 0
221 220 247 0
221 -220 -247 0
-221 220 -247 0
-221 -220 247 0
222 220 321 0
222 -220 -321 0
-222 220 -321 0
-222 -220 321 0
223 220 386 0
223 -220 -386 0
-223 220 -386 0
-223 -220 386 0
224 220 391 0
224 -220 -391 0
-224 220 -391 0
-224 -220 391 0
225 220 436 0
225 -220 -436 0
-225 220 -436 0
-225 -220 436 0
226 220 460 0
226 -220 -460 0
-226 220 -460 0
-226 -220 460 0
228 227 244 0
228 -227 -244 0
-228 227 -244 0
-228 -227 244 0
229 227 350 0
229 -227 -350 0
-229 227 -350 0
-229 -227 350 0
230 227 354 0
230 -227 -354 0
-230 227 -354 0
-230 -227 354 0
231 227 366 0
231 -227 -366 0
-231 227 -366 0
-231 -227 366 0
232 227 384 0
232 -227 -384 0
-232 227 -384 0
-232 -227 384 0
233 227 431 0
233 -227 -431 0
-233 227 -431 0
-233 -227 431 0
235 234 361 0
235 -234 -361 0
-235 234 -361 0
-235 -234 361 0
236 234 366 0
236 -234 -366 0
-236 234 -366 0
-236 -234 366 0
237 234 380 0
237 -234 -380 0
-237 234 -380 0
-237 -234 380 0
238 234 415 0
238 -234 -415 0
-238 234 -415 0
-238 -234 415 0
240 239 257 0
240 -239 -257 0
-240 239 -257 0
-240 -239 257 0
241 239 326 0
241 -239 -326 0
-241 239 -326 0
-241 -239 326 0
242 239 366 0
242 -239 -366 0
-242 239 -366 0
-242 -239 366 0
243 239 469 0
243 -239 -469 0
-243 239 -469 0
-243 -239 469 0
245 244 369 0
245 -244 -369 0
-245 244 -369 0
-245 -244 369 0
246 244 472 0
246 -244 -472 0
-246 244 -472 0
-246 -244 472 0
248 247 288 0
248 -247 -288 0
-248 247 -288 0
-248 -247 288 0
250 249 294 0
250 -249 -294 0
-250 249 -294 0
-250 -249 294 0
251 249 342 0
251 -249 -342 0
-251 249 -342 0
-251 -249 342 0
252 249 350 0
252 -249 -350 0
-252 249 -350 0
-252 -249 350 0
253 249 369 0
253 -249 -369 0
-253 249 -369 0
-253 -249 369 0
254 249 397 0
254 -249 -397 0
-254 249 -397 0
-254 -249 397 0
255 249 408 0
255 -249 -408 0
-255 249 -408 0
-255 -249 408 0
256 249 470 0
256 -249 -470 0
-256 249 -470 0
-256 -249 470 0
258 257 326 0
258 -257 -326 0
-258 257 -326 0
-258 -257 326 0
259 257 358 0
259 -257 -358 0
-259 257 -358 0
-259 -257 358 0
260 257 386 0
260 -257 -386 0
-260 257 -386 0
-260 -257 386 0
261 257 405 0
261 -257 -405 0
-261 257 -405 0
-261 -257 405 0
262 257 433 0
262 -257 -433 0
-262 257 -433 0
-262 -257 433 0
263 257 443 0
263 -257 -443 0
-263 257 -443 0
-263 -257 443 0
264 257 446 0
264 -257 -446 0
-264 257 -446 0
-264 -257 446 0
265 257 458 0
265 -257 -458 0
-265 257 -458 0
-265 -257 458 0
266 257 468 0
266 -257 -468 0
-266 257 -468 0
-266 -257 468 0
267 257 470 0
267 -257 -470 0
-267 257 -470 0
-267 -257 470 0
269 268 326 0
269 -268 -326 0
-269 268 -326 0
-269 -268 326 0
270 268 354 0
270 -268 -354 0
-270 268 -354 0
-270 -268 354 0
271 268 358 0
271 -268 -358 0
-271 268 -358 0
-271 -268 358 0
272 268 381 0
272 -268 -381 0
-272 268 -381 0
-272 -268 381 0
273 268 436 0
273 -268 -436 0
-273 268 -436 0
-273 -268 436 0
275 274 321 0
275 -274 -321 0
-275 274 -321 0
-275 -274 321 0
276 274 412 0
276 -274 -412 0
-276 274 -412 0
-276 -274 412 0
277 274 466 0
277 -274 -466 0
-277 274 -466 0
-277 -274 466 0
279 278 466 0
279 -278 -466 0
-279 278 -466 0
-279 -278 466 0
281 280 303 0
281 -280 -303 0
-281 280 -303 0
-281 -280 303 0
282 280 312 0
282 -280 -312 0
-282 280 -312 0
-282 -280 312 0
283 280 321 0
283 -280 -321 0
-283 280 -321 0
-283 -280 321 0
284 280 339 0
284 -280 -339 0
-284 280 -339 0
-284 -280 339 0
285 280 408 0
285 -280 -408 0
-285 280 -408 0
-285 -280 408 0
286 280 431 0
286 -280 -431 0
-286 280 -431 0
-286 -280 431 0
287 280 470 0
287 -280 -470 0
-287 280 -470 0
-287 -280 470 0
289 288 294 0
289 -288 -294 0
-289 288 -294 0
-289 -288 294 0
290 288 377 0
290 -288 -377 0
-290 288 -377 0
-290 -288 377 0
291 288 423 0
291 -288 -423 0
-291 288 -423 0
-291 -288 423 0
292 288 440 0
292 -288 -440 0
-292 288 -440 0
-292 -288 440 0
293 288 471 0
293 -288 -471 0
-293 288 -471 0
-293 -288 471 0
295 294 358 0
295 -294 -358 0
-295 294 -358 0
-295 -294 358 0
296 294 361 0
296 -294 -361 0
-296 294 -361 0
-296 -294 361 0
297 294 399 0
297 -294 -399 0
-297 294 -399 0
-297 -294 399 0
298 294 421 0
298 -294 -421 0
-298 294 -421 0
-298 -294 421 0
300 299 354 0
300 -299 -354 0
-300 299 -354 0
-300 -299 354 0
301 299 386 0
301 -299 -386 0
-301 299 -386 0
-301 -299 386 0
302 299 401 0
302 -299 -401 0
-302 299 -401 0
-302 -299 401 0
304 303 350 0
304 -303 -350 0
-304 303 -350 0
-304 -303 350 0
305 303 399 0
305 -303 -399 0
-305 303 -399 0
-305 -303 399 0
307 306 354 0
307 -306 -354 0
-307 306 -354 0
-307 -306 354 0
308 306 381 0
308 -306 -381 0
-308 306 -381 0
-308 -306 381 0
309 306 386 0
309 -306 -386 0
-309 306 -386 0
-309 -306 386 0
310 306 388 0
310 -306 -388 0
-310 306 -388 0
-310 -306 388 0
311 306 468 0
311 -306 -468 0
-311 306 -468 0
-311 -306 468 0
313 312 369 0
313 -312 -369 0
-313 312 -369 0
-313 -312 369 0
314 312 381 0
314 -312 -381 0
-314 312 -381 0
-314 -312 381 0
315 312 421 0
315 -312 -421 0
-315 312 -421 0
-315 -312 421 0
317 316 342 0
317 -316 -342 0
-317 316 -342 0
-317 -316 342 0
318 316 386 0
318 -316 -386 0
-318 316 -386 0
-318 -316 386 0
319 316 455 0
319 -316 -455 0
-319 316 -455 0
-319 -316 455 0
320 316 468 0
320 -316 -468 0
-320 316 -468 0
-320 -316 468 0
323 322 326 0
323 -322 -326 0
-323 322 -326 0
-323 -322 326 0
324 322 408 0
324 -322 -408 0
-324 322 -408 0
-324 -322 408 0
325 322 468 0
325 -322 -468 0
-325 322 -468 0
-325 -322 468 0
327 326 334 0
327 -326 -334 0
-327 326 -334 0
-327 -326 334 0
328 326 354 0
328 -326 -354 0
-328 326 -354 0
-328 -326 354 0
329 326 361 0
329 -326 -361 0
-329 326 -361 0
-329 -326 361 0
330 326 366 0
330 -326 -366 0
-330 326 -366 0
-330 -326 366 0
331 326 408 0
331 -326 -408 0
-331 326 -408 0
-331 -326 408 0
332 326 411 0
332 -326 -411 0
-332 326 -411 0
-332 -326 411 0
333 326 470 0
333 -326 -470 0
-333 326 -470 0
-333 -326 470 0
335 334 386 0
335 -334 -386 0
-335 334 -386 0
-335 -334 386 0
336 334 388 0
336 -334 -388 0
-336 334 -388 0
-336 -334 388 0
337 334 397 0
337 -334 -397 0
-337 334 -397 0
-337 -334 397 0
338 334 453 0
338 -334 -453 0
-338 334 -453 0
-338 -334 453 0
340 339 460 0
340 -339 -460 0
-340 339 -460 0
-340 -339 460 0
341 339 470 0
341 -339 -470 0
-341 339 -470 0
-341 -339 470 0
343 342 412 0
343 -342 -412 0
-343 342 -412 0
-343 -342 412 0
344 342 420 0
344 -342 -420 0
-344 342 -420 0
-344 -342 420 0
345 342 458 0
345 -342 -458 0
-345 342 -458 0
-345 -342 458 0
346 342 468 0
346 -342 -468 0
-346 342 -468 0
-346 -342 468 0
348 347 380 0
348 -347 -380 0
-348 347 -380 0
-348 -347 380 0
349 347 449 0
349 -347 -449 0
-349 347 -449 0
-349 -347 449 0
351 350 381 0
351 -350 -381 0
-351 350 -381 0
-351 -350 381 0
352 350 388 0
352 -350 -388 0
-352 350 -388 0
-352 -350 388 0
353 350 440 0
353 -350 -440 0
-353 350 -440 0
-353 -350 440 0
356 355 440 0
356 -355 -440 0
-356 355 -440 0
-356 -355 440 0
357 355 469 0
357 -355 -469 0
-357 355 -469 0
-357 -355 469 0
359 358 373 0
359 -358 -373 0
-359 358 -373 0
-359 -358 373 0
360 358 442 0
360 -358 -442 0
-360 358 -442 0
-360 -358 442 0
362 361 363 0
362 -361 -363 0
-362 361 -363 0
-362 -361 363 0
364 363 369 0
364 -363 -369 0
-364 363 -369 0
-364 -363 369 0
365 363 436 0
365 -363 -436 0
-365 363 -436 0
-365 -363 436 0
367 366 421 0
367 -366 -421 0
-367 366 -421 0
-367 -366 421 0
368 366 473 0
368 -366 -473 0
-368 366 -473 0
-368 -366 473 0
370 369 386 0
370 -369 -386 0
-370 369 -386 0
-370 -369 386 0
371 369 405 0
371 -369 -405 0
-371 369 -405 0
-371 -369 405 0
372 369 438 0
372 -369 -438 0
-372 369 -438 0
-372 -369 438 0
374 373 423 0
374 -373 -423 0
-374 373 -423 0
-374 -373 423 0
375 373 458 0
375 -373 -458 0
-375 373 -458 0
-375 -373 458 0
376 373 469 0
376 -373 -469 0
-376 373 -469 0
-376 -373 469 0
378 377 397 0
378 -377 -397 0
-378 377 -397 0
-378 -377 397 0
379 377 438 0
379 -377 -438 0
-379 377 -438 0
-379 -377 438 0
382 381 411 0
382 -381 -411 0
-382 381 -411 0
-382 -381 411 0
383 381 468 0
383 -381 -468 0
-383 381 -468 0
-383 -381 468 0
385 384 388 0
385 -384 -388 0
-385 384 -388 0
-385 -384 388 0
387 386 412 0
387 -386 -412 0
-387 386 -412 0
-387 -386 412 0
389 388 412 0
389 -388 -412 0
-389 388 -412 0
-389 -388 412 0
390 388 433 0
390 -388 -433 0
-390 388 -433 0
-390 -388 433 0
392 391 397 0
392 -391 -397 0
-392 391 -397 0
-392 -391 397 0
393 391 411 0
393 -391 -411 0
-393 391 -411 0
-393 -391 411 0
394 391 421 0
394 -391 -421 0
-394 391 -421 0
-394 -391 421 0
395 391 443 0
395 -391 -443 0
-395 391 -443 0
-395 -391 443 0
396 391 466 0
396 -391 -466 0
-396 391 -466 0
-396 -391 466 0
398 397 401 0
398 -397 -401 0
-398 397 -401 0
-398 -397 401 0
400 399 442 0
400 -399 -442 0
-400 399 -442 0
-400 -399 442 0
402 401 408 0
402 -401 -408 0
-402 401 -408 0
-402 -401 408 0
403 401 446 0
403 -401 -446 0
-403 401 -446 0
-403 -401 446 0
404 401 469 0
404 -401 -469 0
-404 401 -469 0
-404 -401 469 0
406 405 433 0
406 -405 -433 0
-406 405 -433 0
-406 -405 433 0
407 405 467 0
407 -405 -467 0
-407 405 -467 0
-407 -405 467 0
409 408 455 0
409 -408 -455 0
-409 408 -455 0
-409 -408 455 0
410 408 473 0
410 -408 -473 0
-410 408 -473 0
-410 -408 473 0
413 412 438 0
413 -412 -438 0
-413 412 -438 0
-413 -412 438 0
414 412 462 0
414 -412 -462 0
-414 412 -462 0
-414 -412 462 0
416 415 422 0
416 -415 -422 0
-416 415 -422 0
-416 -415 422 0
417 415 446 0
417 -415 -446 0
-417 415 -446 0
-417 -415 446 0
418 415 453 0
418 -415 -453 0
-418 415 -453 0
-418 -415 453 0
419 415 468 0
419 -415 -468 0
-419 415 -468 0
-419 -415 468 0
424 423 440 0
424 -423 -440 0
-424 423 -440 0
-424 -423 440 0
425 423 464 0
425 -423 -464 0
-425 423 -464 0
-425 -423 464 0
427 426 472 0
427 -426 -472 0
-427 426 -472 0
-427 -426 472 0
429 428 446 0
429 -428 -446 0
-429 428 -446 0
-429 -428 446 0
430 428 469 0
430 -428 -469 0
-430 428 -469 0
-430 -428 469 0
432 431 473 0
432 -431 -473 0
-432 431 -473 0
-432 -431 473 0
434 433 460 0
434 -433 -460 0
-434 433 -460 0
-434 -433 460 0
435 433 472 0
435 -433 -472 0
-435 433 -472 0
-435 -433 472 0
437 436 438 0
437 -436 -438 0
-437 436 -438 0
-437 -436 438 0
439 438 453 0
439 -438 -453 0
-439 438 -453 0
-439 -438 453 0
441 440 449 0
441 -440 -449 0
-441 440 -449 0
-441 -440 449 0
444 443 464 0
444 -443 -464 0
-444 443 -464 0
-444 -443 464 0
445 443 470 0
445 -443 -470 0
-445 443 -470 0
-445 -443 470 0
447 446 460 0
447 -446 -460 0
-447 446 -460 0
-447 -446 460 0
448 446 471 0
448 -446 -471 0
-448 446 -471 0
-448 -446 471 0
450 449 460 0
450 -449 -460 0
-450 449 -460 0
-450 -449 460 0
451 449 467 0
451 -449 -467 0
-451 449 -467 0
-451 -449 467 0
452 449 472 0
452 -449 -472 0
-452 449 -472 0
-452 -449 472 0
454 453 472 0
454 -453 -472 0
-454 453 -472 0
-454 -453 472 0
456 455 464 0
456 -455 -464 0
-456 455 -464 0
-456 -455 464 0
457 455 467 0
457 -455 -467 0
-457 455 -467 0
-457 -455 467 0
459 458 468 0
459 -458 -468 0
-459 458 -468 0
-459 -458 468 0
461 460 472 0
461 -460 -472 0
-461 460 -472 0
-461 -460 472 0
463 462 468 0
463 -462 -468 0
-463 462 -468 0
-463 -462 468 0
465 464 468 0
465 -464 -468 0
-465 464 -468 0
-465 -464 468 0
